# Solution for model r5_t18_m0_1 Batch Number: 4
# Finished Task: 18 / 18
# Makespan: 591.0, Total Distance: 327.0, Total Time: 0.7858
# R O S F Batch
0 0 18 0.0 0.0 -1
1 1 19 0.0 0.0 -1
2 2 22 0.0 0.0 -1
3 3 8 0.0 0.0 -1
4 4 12 0.0 0.0 -1
5 3 11 130.0 164.0 0
6 4 -1 455.0 482.0 1
7 2 10 347.0 376.0 0
8 3 5 75.0 100.0 0
9 2 15 501.0 526.0 2
10 2 14 414.0 452.0 2
11 3 13 195.0 224.0 0
12 4 6 402.0 423.0 0
13 3 16 364.0 384.0 1
14 2 9 452.0 485.0 2
15 2 -1 526.0 547.0 3
16 3 20 474.0 499.0 3
17 2 7 294.0 320.0 0
18 0 -1 418.0 444.0 0
19 1 21 200.0 238.0 0
20 3 -1 552.0 591.0 3
21 1 -1 366.0 392.0 1
22 2 17 228.0 265.0 0
